30
1 0 2
3 1 5
3 2 2
4 2 3
4 3 4
5 2 2
5 3 1
5 4 5
6 0 1
6 2 3
6 3 1
6 5 1
7 2 4
7 5 4
8 0 3
8 5 3
8 6 1
8 7 1
9 0 2
9 1 1
9 2 4
9 4 2
9 6 2
9 8 1
10 3 5
10 7 3
10 9 3
11 4 3
11 5 2
11 6 2
11 7 2
11 8 3
11 9 5
11 10 1
12 0 4
12 3 4
12 4 5
12 8 4
12 10 1
12 11 1
13 0 4
13 1 1
13 2 5
13 3 1
13 4 4
13 5 4
13 7 5
13 10 4
13 11 2
13 12 5
14 0 3
14 4 1
14 5 4
14 6 3
14 7 5
14 9 3
14 10 1
15 5 4
15 6 3
15 7 1
15 8 4
15 9 3
15 10 5
15 13 4
15 14 5
16 0 3
16 2 1
16 3 4
16 4 5
16 9 3
16 11 3
16 13 2
16 14 5
16 15 2
17 0 3
17 1 2
17 2 3
17 7 3
17 9 3
17 11 5
17 12 1
17 13 3
17 16 3
18 1 4
18 3 5
18 4 4
18 7 3
18 10 2
18 11 2
18 13 1
18 14 4
19 0 1
19 1 3
19 3 5
19 5 3
19 8 5
19 9 5
19 12 4
19 14 2
19 15 3
19 17 2
20 3 3
20 5 3
20 6 5
20 10 1
20 11 5
20 13 3
20 14 4
20 16 4
20 18 5
21 3 1
21 4 4
21 5 1
21 6 3
21 8 1
21 9 3
21 12 1
21 13 1
21 14 3
21 16 5
21 18 4
22 0 5
22 5 4
22 6 5
22 8 1
22 10 4
22 12 4
22 13 1
22 20 2
23 0 4
23 1 5
23 2 3
23 6 1
23 7 1
23 8 3
23 9 1
23 11 4
23 13 3
23 14 2
23 15 5
23 16 5
23 18 1
23 20 2
23 21 4
24 0 5
24 2 4
24 3 1
24 5 5
24 7 5
24 9 4
24 10 1
24 12 1
24 13 2
24 17 2
24 20 1
24 23 2
25 1 4
25 2 1
25 3 5
25 4 3
25 5 2
25 6 5
25 8 5
25 10 2
25 11 2
25 13 2
25 15 4
25 16 4
25 21 4
25 22 2
26 0 4
26 3 5
26 6 1
26 7 1
26 8 4
26 11 5
26 12 2
26 14 2
26 15 1
26 16 4
26 19 4
26 20 2
26 21 3
26 23 1
26 25 5
27 2 2
27 3 1
27 4 4
27 9 5
27 10 3
27 14 3
27 16 4
27 17 4
27 20 4
27 21 5
27 23 4
27 26 2
28 0 2
28 1 4
28 2 1
28 7 4
28 8 2
28 9 2
28 10 4
28 12 5
28 14 1
28 19 1
28 20 1
28 22 5
28 23 3
28 24 1
28 27 4
29 0 3
29 3 4
29 4 2
29 5 5
29 6 1
29 8 5
29 12 5
29 13 1
29 16 5
29 18 5
29 20 5
29 21 5
29 22 1
29 23 2
29 26 1
29 27 2
29 28 5
